NAME : P = NP
TYPE : TSP
DIMENSION : 60
EDGE_WEIGHT_TYPE : EUC_2D
NODE_COORD_SECTION
0 592 88
1 51 283
2 626 827
3 53 58
4 81 4
5 914 41
6 355 115
7 12 147
8 414 134
9 353 41
10 195 27
11 127 145
12 220 39
13 200 227
14 126 528
15 440 31
16 253 141
17 158 284
18 239 719
19 45 47
20 21 141
21 740 560
22 66 331
23 165 730
24 1 329
25 276 601
26 464 53
27 189 17
28 658 977
29 415 447
30 27 117
31 418 56
32 476 58
33 20 311
34 65 1
35 495 63
36 45 125
37 281 122
38 138 96
39 252 47
40 421 254
41 855 130
42 50 207
43 226 513
44 21 742
45 84 82
46 551 201
47 7 29
48 164 445
49 219 668
50 252 158
51 867 541
52 313 66
53 321 102
54 346 618
55 266 92
56 10 629
57 69 328
58 64 9
59 9 74